10
0 10 18 30 57 92 29 77 45 84 
63 0 53 94 20 8 40 48 91 68 
45 95 0 25 59 35 82 46 58 100 
3 73 87 0 66 40 2 20 33 72 
26 22 22 18 0 66 91 59 68 43 
48 56 61 24 84 0 54 32 29 64 
82 40 6 54 53 96 0 27 64 85 
30 10 1 98 49 21 53 0 46 35 
63 55 5 40 65 28 1 90 0 57 
59 69 99 69 80 33 94 8 57 0 
